Log started (V11.2.0) 


Problem 'det_equ.lp.gz' read.
Read time =   18.36 sec.
New value for probing strategy: 3
New value for type of mixed integer rounding cut generation: 2
Presolve has eliminated 1011256 rows and 1404268 columns...
Presolve has improved bounds 1492000 times...
Presolve has eliminated 1011256 rows and 1404268 columns...
Presolve has improved bounds 1492000 times...
Aggregator has done 247680 substitutions...
Presolve has eliminated 1012252 rows and 1404268 columns...
Aggregator has done 388000 substitutions...
Presolve has improved bounds 1492000 times...
Tried aggregator 2 times.
MIP Presolve eliminated 1012257 rows and 1404283 columns.
MIP Presolve modified 6001 coefficients.
Aggregator did 388000 substitutions.
Reduced MIP has 1296009 rows, 1200031 columns, and 4512042 nonzeros.
Reduced MIP has 15 binaries, 16 generals, 0 SOSs, and 0 indicators.
Probing time =    3.84 sec.
Presolve has eliminated 0 rows and 0 columns...
Tried aggregator 1 time.
MIP Presolve modified 44440 coefficients.
Reduced MIP has 1296009 rows, 1200031 columns, and 4512042 nonzeros.
Reduced MIP has 15 binaries, 16 generals, 0 SOSs, and 0 indicators.
Presolve time =  128.20 sec.
Probing time =    4.02 sec.
Clique table members: 5.
MIP emphasis: balance optimality and feasibility.
MIP search method: dynamic search.
Parallel mode: none, using 1 thread.
Root relaxation solution time = 30045.43 sec.

        Nodes                                         Cuts/
   Node  Left     Objective  IInf  Best Integer     Best Node    ItCnt     Gap

*     0+    0                       974381.5497                      0     --- 
      0     0     7847.8360     6   974381.5497     7847.8360   860424   99.19%
*     0+    0                        11367.2093     7847.8360   860424   30.96%
      0     0    11001.5062     2    11367.2093   Cuts: 35555  1050775    3.22%
*     0+    0                        11005.8310    11001.5062  1050775    0.04%
      0     0        cutoff          11005.8310    11001.5062  1050775    0.04%
Elapsed time = 41775.77 sec. (tree size =  0.00 MB, solutions = 3)

Mixed integer rounding cuts applied:  33766
Zero-half cuts applied:  1
Gomory fractional cuts applied:  4

Solution pool: 3 solutions saved.

MIP - Integer optimal solution:  Objective =  1.1005830977e+04
Solution time = 41781.78 sec.  Iterations = 1050775  Nodes = 0


Problem 'det_equ.lp.gz' read.
Read time =   18.29 sec.

Log started (V11.2.0) 


Problem 'det_equ.lp.gz' read.
Read time =   21.09 sec.
Presolve has eliminated 1011256 rows and 1404268 columns...
Presolve has improved bounds 1492000 times...
Presolve has eliminated 1011256 rows and 1404268 columns...
Presolve has improved bounds 1492000 times...
Aggregator has done 257012 substitutions...
Presolve has eliminated 1012252 rows and 1404268 columns...
Aggregator has done 388000 substitutions...
Presolve has improved bounds 1492000 times...
Tried aggregator 2 times.
MIP Presolve eliminated 1012257 rows and 1404283 columns.
MIP Presolve modified 6001 coefficients.
Aggregator did 388000 substitutions.
Reduced MIP has 1296009 rows, 1200031 columns, and 4512042 nonzeros.
Reduced MIP has 15 binaries, 16 generals, 0 SOSs, and 0 indicators.
Presolve time =   54.93 sec.
Clique table members: 5.
MIP emphasis: balance optimality and feasibility.
MIP search method: dynamic search.
Parallel mode: deterministic, using up to 4 threads.
Root relaxation solution time = 23268.09 sec.

        Nodes                                         Cuts/
   Node  Left     Objective  IInf  Best Integer     Best Node    ItCnt     Gap

*     0+    0                      3576505.9438                      0     --- 
      0     0     7718.2287     6  3576505.9438     7718.2287   853006   99.78%
*     0+    0                        11367.2093     7718.2287   853006   32.10%
      0     0    11001.2610     2    11367.2093   Cuts: 36731  1042838    3.22%
*     0+    0                        11005.8310    11001.2610  1042838    0.04%
      0     0        cutoff          11005.8310    11001.2610  1042838    0.04%
Elapsed real time = 35383.50 sec. (tree size =  0.00 MB, solutions = 3)

Mixed integer rounding cuts applied:  34484
Zero-half cuts applied:  1
Gomory fractional cuts applied:  4

Root node processing (before b&c):
  Real time             = 35334.26
Parallel b&c, 4 threads:
  Real time             =    3.52
  Sync time (average)   =    0.00
  Wait time (average)   =    0.01
                          -------
Total (root+branch&cut) = 35337.79 sec.

Solution pool: 3 solutions saved.

MIP - Integer optimal solution:  Objective =  1.1005830977e+04
Solution time = 35393.43 sec.  Iterations = 1042838  Nodes = 0

